nNurses = 160;
nHours = 27;
minHours = 3;
maxHours = 20;
maxConsec = 17;
maxPresence = 14;
demand = [21, 21, 21, 16, 20, 23, 20, 23, 26, 25, 23, 23, 22, 22, 19, 19, 21, 26, 29, 24, 27, 24, 22, 23, 23, 22, 26];
